




































































































55 20 45 3 15 39 
70 54 7 52 26 
64 29 4 30 73 21 
12 49 58 44 9 13 
33 63 11 6 62 
14 47 23 66 53 38 
32 0 10 25 69 46 
18 61 36 2 41 27 
67 22 51 72 59 
40 17 57 71 76 56 
37 35 68 74 43 19 
60 50 48 42 1 
8 31 65 75 
16 34 24 5 28 
